NAME nominalQP
ROWS
 N  OBJ
 L  quad_0  
 L  quad_1  
COLUMNS
    C0        OBJ       -1.33
    C0        quad_0    -1.465
    C1        OBJ       -0.225
    C1        quad_0    0.284
    C1        quad_1    0.837
    C2        OBJ       -0.227
    C2        quad_0    -0.912
    C2        quad_1    -0.024
    C3        OBJ       -0.98
    C3        quad_1    0.348
    C4        OBJ       1.574
    C4        quad_1    -1.231
    C5        OBJ       -0.432
    C5        quad_1    -0.844
    C6        OBJ       -0.028
    C6        quad_0    -1.77
    C7        OBJ       -0.163
    C8        OBJ       0.021
    C8        quad_0    0.152
    C8        quad_1    0.982
    C9        OBJ       -1.082
    C9        quad_1    1.62
RHS
    RHS1      OBJ       -0.68
    RHS1      quad_0    1.18
    RHS1      quad_1    3.585
BOUNDS
QUADOBJ
    C0        C0        2
    C1        C1        2
    C2        C2        2
    C3        C3        2
    C4        C4        2
    C5        C5        2
    C6        C6        2
    C7        C7        2
    C8        C8        2
    C9        C9        2
QCMATRIX   quad_0  
    C3        C3        5.7028109999999996e+000
    C3        C4        8.2294799999999990e-001
    C4        C3        8.2294799999999990e-001
    C3        C5        2.0477779999999997e+000
    C5        C3        2.0477779999999997e+000
    C3        C7        -9.6759699999999993e-001
    C7        C3        -9.6759699999999993e-001
    C3        C9        -1.8822760000000001e+000
    C9        C3        -1.8822760000000001e+000
    C4        C4        7.5467959999999996e+000
    C4        C5        -3.6426509999999999e+000
    C5        C4        -3.6426509999999999e+000
    C4        C7        -3.2861720000000001e+000
    C7        C4        -3.2861720000000001e+000
    C4        C9        -3.1259749999999995e+000
    C9        C4        -3.1259749999999995e+000
    C5        C5        9.7089259999999999e+000
    C5        C7        1.7481369999999998e+000
    C7        C5        1.7481369999999998e+000
    C5        C9        2.8716069999999996e+000
    C9        C5        2.8716069999999996e+000
    C7        C7        2.2375929999999999e+000
    C7        C9        1.4439249999999997e+000
    C9        C7        1.4439249999999997e+000
    C9        C9        1.0461897000000000e+001
QCMATRIX   quad_1  
    C0        C0        3.6470499999999995e-001
    C0        C6        4.0884999999999994e-001
    C6        C0        4.0884999999999994e-001
    C0        C7        2.2658300000000003e-001
    C7        C0        2.2658300000000003e-001
    C6        C6        4.2406379999999997e+000
    C6        C7        -3.0972900000000025e-001
    C7        C6        -3.0972900000000025e-001
    C7        C7        8.1786750000000001e+000
ENDATA
